c Output_time 26.03.2020 18:15:09_+0100 1585242909447076836
c ** Program information **
c program_name                          "QBRG_debug"
c version                               "0.3.20"
c date                                  "25.3.2020"
c gid_id                                "673970833836058123f633335630c185360d632e"
c author                                "Oliver Kullmann"
c url                                   "https://github.com/OKullmann/oklibrary/blob/master/Satisfiability/Transformers/Generators/Random/QBRG.cpp"
c ** Machine information **
c machine_name                          "chyna-Lenovo-G50-70"
c bogomips                              3791.08
c ** Compilation information **
c compiler_version                      "g++ 7.5.0"
c compilation_date                      "Mar_26_2020 11:16:30"
c compilation_options                   "--std=c++17 -pedantic -fmax-errors=5 -Wall -Wextra -g -D_GLIBCXX_DEBUG"
c NDEBUG                                0
c OPTIMIZE                              0
c ** Parameters **
c command-line                          "./QBRG_debug" "a40 e40 a40 40" "103*1,1|2-2,1|3-3,1|4-4,1" "" "1,t" ""
c output                                "QuBlRaGe_160_103_1585242909446916928.qdimacs"
c options                               "filtered,renamed"
c num_quantifier_blocks                 4
c  quantifier_blocks                    1:a1-40 2:e41-80 3:a81-120 4:e121-160
c num_clause-blocks                     1
c  clause-blocks                        103 * {1-40,1,1/2} | {41-80,1,1/2} | {81-120,1,1/2} | {121-160,1,1/2}
c num_e-seeds                           37+2=39
c  e-seeds                              1 0 1 0 5 160 2 40 0 40 1 40 0 40 1 103 4 1 1 1 1 2 2 2 1 1 2 3 3 1 1 2 4 4 1 1 2 1 1585242909446916453
p cnf 144 103
a 1 2 3 4 5 6 7 8 9 10 11 12 13 14 15 16 17 18 19 20 21 22 23 24 25 26 27 28 29 30 31 32 33 34 35 36 0
e 37 38 39 40 41 42 43 44 45 46 47 48 49 50 51 52 53 54 55 56 57 58 59 60 61 62 63 64 65 66 67 68 69 70 71 0
a 72 73 74 75 76 77 78 79 80 81 82 83 84 85 86 87 88 89 90 91 92 93 94 95 96 97 98 99 100 101 102 103 104 105 106 107 108 0
e 109 110 111 112 113 114 115 116 117 118 119 120 121 122 123 124 125 126 127 128 129 130 131 132 133 134 135 136 137 138 139 140 141 142 143 144 0
-30 -50 -100 109 0
-6 45 -96 110 0
-18 65 -102 110 0
22 -53 -95 -111 0
31 38 95 -112 0
26 67 98 -112 0
-10 65 -82 112 0
4 61 -108 112 0
3 -64 85 -113 0
11 58 -92 -113 0
10 51 -82 113 0
-34 63 80 -114 0
-11 42 78 114 0
-7 68 104 114 0
-6 68 -105 114 0
-22 -60 -105 -115 0
-27 57 -107 -115 0
17 -50 -81 -116 0
-31 -43 101 116 0
8 -52 82 -117 0
-18 -63 96 -117 0
-8 -37 -98 -117 0
-34 -39 79 -118 0
-2 -40 -75 118 0
-32 -69 -106 118 0
3 46 -78 -119 0
22 -38 -106 119 0
12 70 85 -120 0
14 37 -91 120 0
-19 47 83 -121 0
5 57 -107 -121 0
8 -48 78 -122 0
-6 70 -90 -122 0
-23 -69 -96 122 0
-8 -62 -82 -123 0
-16 44 87 123 0
10 59 101 123 0
24 56 72 124 0
17 -60 74 124 0
26 -38 101 124 0
15 37 -79 -125 0
-4 -69 -79 -125 0
-26 -60 -86 -125 0
18 -39 -102 -125 0
21 44 75 125 0
20 45 -83 125 0
-25 39 84 -126 0
-4 39 -97 -126 0
-30 48 91 126 0
14 64 -74 -127 0
-14 -46 -77 127 0
15 -68 76 128 0
-4 -56 104 -129 0
17 38 -90 129 0
6 41 -85 -130 0
-24 57 83 130 0
-13 -51 -94 130 0
33 60 -96 -131 0
2 55 -97 -131 0
-26 -63 -103 -131 0
4 42 -105 -131 0
-32 -59 -75 131 0
21 -49 77 132 0
-27 44 -72 -133 0
23 46 -93 133 0
-26 -58 77 -134 0
-25 43 88 -134 0
31 -65 -91 -134 0
18 70 91 -134 0
15 -52 73 134 0
27 -66 78 -135 0
30 39 -90 -135 0
-15 -58 -93 -135 0
35 -42 73 135 0
-25 -66 -78 -136 0
6 -42 108 -136 0
-33 -63 108 -136 0
-26 -68 -105 136 0
18 54 -91 -137 0
-15 -53 76 -138 0
-17 51 81 -138 0
-11 -50 -85 -138 0
-7 -49 -99 138 0
12 43 104 138 0
25 -67 108 138 0
32 -42 102 -139 0
-1 -50 -107 -139 0
31 65 -77 139 0
-36 57 93 139 0
-7 64 88 -140 0
29 -58 -95 140 0
9 40 86 -141 0
30 58 85 141 0
-28 -48 75 -142 0
10 -46 -82 -142 0
1 40 -88 142 0
-24 69 -78 -143 0
4 71 -94 -143 0
18 70 -96 -143 0
-20 69 -101 -143 0
-15 -49 82 143 0
9 51 -89 143 0
-6 -70 -79 -144 0
